src/problems/KKL3-hiring-process.txt
# input state

0,  0,  0,  0,  0,  0,  0

# task conditions

   0,  0,  0,  0,  0,  0,  0
   1,  0, -1, -1,  0,  0,  0
   1,  1,  0,  0,  0,  0,  0
   1, -1,  1,  0,  0,  0,  0
   1, -1,  1,  1,  0, -1, -1
   1, -1,  1,  1, -1,  0, -1
   1, -1,  1,  1, -1, -1,  0

# task effects

   1, -1, -1, -1, -1, -1, -1
  -1,  1,  0,  0, -1, -1, -1
  -1,  0,  1, -1, -1, -1, -1
  -1,  0, -1,  1, -1, -1, -1
  -1, -1, -1, -1,  1, -1, -1
  -1, -1, -1, -1, -1,  1, -1
  -1, -1, -1, -1, -1, -1,  1



# goal state

-1, -1, -1, -1,  1,  1,  1
                    

# task max executions

1, 3, 3, 2, 1, 1, 1
